140703
3,94,78,96,60,91,79,43,1,87,44,66,59,10,27,28,58,76,89,24,102,74,14,47,61,15,4,103,35,75,32,63,51,100,82,72,45,25,86,81,42,19,99,68,50,26,34,83,80,57,9,92,23,93,12,29,30,55,5,52,97,8,106,98,65,31,13,88,69,6,46,77,40,56,20,16,64,90,17,21,22,62,2,33,84,53,7,18,49,39,73,48,85,11,41,67,104,105,38,95,54,71,36,37,70,101,3